; benchmark generated from python API
(set-info :status unknown)
(declare-fun S_0 () Real)
(declare-fun L_0 () Real)
(declare-fun A_0 () Real)
(declare-fun C () Real)
(declare-fun S_3 () Real)
(declare-fun S_4 () Real)
(declare-fun S_1 () Real)
(declare-fun L_2 () Real)
(declare-fun A_3 () Real)
(declare-fun S_2 () Real)
(declare-fun B () Real)
(declare-fun A_1 () Real)
(declare-fun L_1 () Real)
(declare-fun A_2 () Real)
(declare-fun A_4 () Real)
(assert
 (let (($x34 (>= L_0 0.0)))
 (let (($x670 (>= C 5.0)))
 (let (($x1560 (<= (+ (* (- 1.0) S_4) A_3 (* (- 1.0) L_2)) 0.0)))
 (let ((?x230 (* (- 1.0) B)))
 (let ((?x902 (* 2.0 C)))
 (let ((?x360 (* (- 1.0) S_4)))
 (let ((?x239 (* (- 1.0) L_1)))
 (let (($x955 (<= (+ ?x239 A_1 ?x360 ?x902 ?x230) 0.0)))
 (let (($x61 (= L_2 L_1)))
 (let (($x1407 (not $x61)))
 (let (($x51 (= L_1 L_0)))
 (let (($x1112 (<= (+ A_2 (* (- 1.0) L_2) (* (- 1.0) C) (* (- 1.0) S_2) ?x230) 0.0)))
 (let (($x1162 (<= (+ A_2 (* (- 1.0) L_2) (* (- 2.0) C) (* (- 1.0) S_1) ?x230) 0.0)))
 (let (($x2014 (or $x61 (<= (+ S_4 (* (- 1.0) A_2) (* (- 2.0) C) L_2 B) 0.0))))
 (let (($x2177 (or $x61 (<= (+ S_3 (* (- 1.0) A_2) L_2 (* (- 1.0) C) B) 0.0))))
 (let (($x807 (not $x51)))
 (let (($x6495 (or $x61 $x807 (<= (+ A_1 (* (- 1.0) L_0) (* (- 1.0) A_2) L_2 C) 0.0))))
 (let (($x1090 (<= (+ ?x239 A_1 (* (- 1.0) A_0) L_0 (* (- 1.0) C) ?x230) 0.0)))
 (let (($x6609 (or $x51 (<= (+ L_1 (* (- 1.0) A_1) S_4 (* (- 3.0) C) B) 0.0))))
 (let (($x6590 (or $x51 (<= (+ L_1 (* (- 1.0) A_1) S_3 (* (- 2.0) C) B) 0.0))))
 (let (($x493 (<= 0.0 (+ ?x239 L_0))))
 (let ((?x256 (* (- 1.0) L_2)))
 (let ((?x761 (+ L_1 ?x256)))
 (let (($x467 (<= 0.0 ?x761)))
 (let (($x5013 (or (<= 0.0 (+ ?x239 A_1 (* (- 1.0) A_3) ?x902 L_2 ?x230)) $x955)))
 (let (($x6639 (or $x51 (<= (+ L_1 (* (- 1.0) A_1) (* (- 1.0) C) S_2 B) 0.0))))
 (let (($x808 (<= (+ (* (- 1.0) A_0) L_0 A_2 ?x256 (* (- 2.0) C) ?x230) 0.0)))
 (let (($x108 (>= S_1 S_0)))
 (let (($x111 (>= S_2 S_1)))
 (let (($x114 (>= S_3 S_2)))
 (let (($x120 (>= A_2 A_1)))
 (let (($x121 (>= A_3 A_2)))
 (let (($x122 (>= A_4 A_3)))
 (and (<= (+ A_1 ?x239) S_4) (<= (+ A_0 (* (- 1.0) L_0)) S_3) $x122 $x121 $x120 $x114 $x111 $x108 (not (<= (+ A_1 ?x239) S_3)) (or $x51 (not $x493)) (or (not $x467) $x61) (or $x51 (<= (+ L_1 (* (- 1.0) A_1) S_1 B) 0.0)) (or $x61 (<= (+ (* (- 1.0) A_2) L_2 S_2 B) 0.0)) $x808 (<= (+ A_2 ?x256 (* (- 3.0) C) (* (- 1.0) S_0) ?x230) 0.0) $x6639 $x5013 (<= (+ ?x239 A_1 (* (- 1.0) S_2) ?x230) 0.0) (<= (+ (* (- 1.0) S_3) A_2 ?x256 ?x230) 0.0) (<= (+ ?x239 A_1 (* (- 1.0) C) (* (- 1.0) S_1) ?x230) 0.0) (not (<= 0.0 (+ ?x239 A_1 (* (- 1.0) A_2) C L_2 ?x230))) (<= (+ ?x239 A_1 (* (- 1.0) S_3) C ?x230) 0.0) (or $x467 $x493 (= (+ ?x239 A_1 (* (- 1.0) A_2) C L_2) 0.0)) $x6590 $x6609 $x1090 (<= (+ ?x239 A_1 (* (- 2.0) C) (* (- 1.0) S_0) ?x230) 0.0) $x6495 (<= (+ S_4 (* (- 1.0) A_4) L_2) 0.0) (or $x61 (<= (+ (* (- 1.0) A_2) L_2 C S_1 B) 0.0)) $x2177 $x2014 (<= (+ ?x360 A_2 ?x256 C ?x230) 0.0) (or $x61 (<= (+ (* (- 1.0) A_2) L_2 ?x902 S_0 B) 0.0)) $x1162 $x1112 (or $x51 (<= (+ L_1 (* (- 1.0) A_1) C S_0 B) 0.0)) (or $x51 (<= 0.0 (+ A_1 (* (- 1.0) A_2) C)) $x1407) (or $x955 $x1560) (<= (+ (* (- 3.0) C) S_2 (* (- 1.0) S_0)) 0.0) (<= (+ (* (- 1.0) A_0) L_0 (* (- 2.0) C) S_2) 0.0) (<= (+ S_4 (* (- 1.0) A_0) L_0 (* (- 4.0) C)) 0.0) (<= (+ S_4 (* (- 5.0) C) (* (- 1.0) S_0)) 0.0) (<= (+ (* (- 1.0) A_0) S_3 L_0 (* (- 3.0) C)) 0.0) (<= (+ (* (- 1.0) S_3) C S_1) 0.0) (<= (+ S_4 (* (- 3.0) C) (* (- 1.0) S_2)) 0.0) (<= (+ (* (- 1.0) A_0) L_0 (* (- 1.0) C) S_1) 0.0) (or $x1560 (<= (+ ?x360 C S_2) 0.0)) (or $x1560 (<= (+ ?x360 ?x902 S_1) 0.0)) (<= (+ S_3 (* (- 2.0) C) (* (- 1.0) S_2)) 0.0) (<= (+ S_4 (* (- 1.0) A_3) L_2 (* (- 1.0) C)) 0.0) (<= (+ S_3 (* (- 3.0) C) (* (- 1.0) S_1)) 0.0) (<= (+ C (* (- 1.0) S_2) S_0) 0.0) (<= (+ (* (- 1.0) S_3) ?x902 S_0) 0.0) (<= (+ (* (- 2.0) C) S_2 (* (- 1.0) S_1)) 0.0) (or $x1560 (<= (+ ?x360 (* 3.0 C) S_0) 0.0)) (<= (+ (* (- 2.0) C) S_1 (* (- 1.0) S_0)) 0.0) (<= (+ S_3 (* (- 4.0) C) (* (- 1.0) S_0)) 0.0) (<= (+ S_4 (* (- 4.0) C) (* (- 1.0) S_1)) 0.0) $x670 $x34 (<= (+ S_4 (* (- 1.0) S_3) (* (- 2.0) C)) 0.0) (<= (+ (* (- 1.0) A_0) L_0 S_0) 0.0))))))))))))))))))))))))))))))))))))
(check-sat)
